NAME : single
TYPE : ATSP
DIMENSION : 11
EDGE_WEIGHT_TYPE : EXPLICIT
EDGE_WEIGHT_FORMAT : FULL_MATRIX
EDGE_WEIGHT_SECTION
0 50374 50371 50452 50416 1152 1074 1197 1004 380 315 
0 0 81 258 260 180 267 185 540 50000 50000 
0 81 0 233 178 175 260 195 491 50000 50000 
0 258 233 0 130 202 104 282 309 50000 50000 
0 260 178 130 0 206 169 277 405 50000 50000 
0 180 175 202 206 0 288 115 315 50000 50000 
0 267 260 104 169 288 0 195 235 50000 50000 
0 185 195 282 277 115 195 0 50000 50000 50000 
0 540 491 309 405 315 235 50000 0 50000 654 
0 50000 50000 50000 50000 50000 50000 50000 50000 0 191 
0 50000 50000 50000 50000 50000 50000 50000 654 191 0 
EOF